5 6 52
2 3 1 4 2 16 27 36 50 
5 1 1 1 2 5 1 3 2 3 3 4 11 11 23 32 36 38 43 43 52 
3 2 1 2 2 2 3 10 26 26 32 32 46 
3 4 1 1 3 5 2 26 32 32 41 44 52 
7 2 1 3 1 3 1 1 3 1 3 4 2 3 2 0 10 10 14 14 16 21 23 23 31 32 36 36 38 
6 1 1 4 1 4 1 5 1 5 1 5 2 0 4 4 14 14 26 26 28 28 32 36 44 
